12287
18431
24319
32639
32759
38911
48895
53239
55039
56319
59263
61375
62463
63479
65023
65151
65519
65533
73727
79871
81663
85759
89983
90103
94199
95999
96127
96247
97279
97791
97919
98239
98287
98301
100351
106239
112383
113663
114175
114559
114623
114671
114679
114685
119807
120703
120823
122367
122495
122815
122863
122877
123903
126463
126591
128511
128639
128959
129007
129021
129535
129791
129919
129983
130031
130039
130045
130303
130431
130495
130543
130551
130557
130751
130799
130807
130813
130879
130927
130935
130941
130991
130999
131005
131039
131047
131053
131061
131067
131070
